
Gurobi 9.1.2 (linux64) logging started Thu Mar 31 09:07:29 2022

Changed value of parameter LogFile to ny_v-N7.log
   Prev:   Default: 
Changed value of parameter MIPFocus to 1
   Prev: 0  Min: 0  Max: 3  Default: 0
Changed value of parameter TimeLimit to 600.0
   Prev: inf  Min: 0.0  Max: inf  Default: inf
Warning: variables 0 and 130 have the same name "X[N2,N1]"
Warning: linear constraint 102 and linear constraint 103 have the same name "weight-constr-t5"
Warning: to let Gurobi read it back, use rlp format
Gurobi Optimizer version 9.1.2 build v9.1.2rc0 (linux64)
Thread count: 32 physical cores, 64 logical processors, using up to 32 threads
Optimize a model with 765 rows, 780 columns and 2592 nonzeros
Model fingerprint: 0x31bf1c5b
Variable types: 96 continuous, 684 integer (684 binary)
Coefficient statistics:
  Matrix range     [1e+00, 1e+06]
  Objective range  [2e-01, 2e-01]
  Bounds range     [1e+00, 5e+05]
  RHS range        [1e+00, 1e+06]
Found heuristic solution: objective 19.5000000
Presolve removed 438 rows and 498 columns
Presolve time: 0.00s
Presolved: 327 rows, 282 columns, 1488 nonzeros
Variable types: 84 continuous, 198 integer (192 binary)

Root relaxation: objective 1.500000e+01, 50 iterations, 0.00 seconds

    Nodes    |    Current Node    |     Objective Bounds      |     Work
 Expl Unexpl |  Obj  Depth IntInf | Incumbent    BestBd   Gap | It/Node Time

H    0     0                      15.0000000    0.00000   100%     -    0s
     0     0     cutoff    0        15.00000   15.00000  0.00%     -    0s

Explored 0 nodes (161 simplex iterations) in 0.01 seconds
Thread count was 32 (of 64 available processors)

Solution count 2: 15 19.5 

Optimal solution found (tolerance 1.00e-04)
Best objective 1.500000000000e+01, best bound 1.500000000000e+01, gap 0.0000%
